unknown
(model
; cardinality of BoundSet is 3
(declare-sort BoundSet 0)
; rep: @uc_BoundSet_0
; rep: @uc_BoundSet_1
; rep: @uc_BoundSet_2
; cardinality of UnboundSet is 1
(declare-sort UnboundSet 0)
(declare-fun groundTerm_4 () UnboundSet)
(define-fun CanNeverGive ((BOUND_VARIABLE_400 BoundSet) (BOUND_VARIABLE_401 BoundSet) (BOUND_VARIABLE_402 BoundSet)) Bool true)
(define-fun CanGive ((BOUND_VARIABLE_400 BoundSet) (BOUND_VARIABLE_401 BoundSet) (BOUND_VARIABLE_402 BoundSet)) Bool false)
(define-fun WillWalkAllOver ((BOUND_VARIABLE_424 BoundSet) (BOUND_VARIABLE_425 BoundSet)) Bool false)
)
sat
(model
; cardinality of BoundSet is 1
(declare-sort BoundSet 0)
; rep: @uc_BoundSet_0
; cardinality of UnboundSet is 1
(declare-sort UnboundSet 0)
(declare-fun groundTerm_6 () UnboundSet)
(define-fun CanNeverGive ((BOUND_VARIABLE_451 BoundSet) (BOUND_VARIABLE_452 BoundSet) (BOUND_VARIABLE_453 BoundSet)) Bool true)
(define-fun CanGive ((BOUND_VARIABLE_451 BoundSet) (BOUND_VARIABLE_452 BoundSet) (BOUND_VARIABLE_453 BoundSet)) Bool false)
(define-fun WillWalkAllOver ((BOUND_VARIABLE_466 BoundSet) (BOUND_VARIABLE_467 BoundSet)) Bool true)
)
